\* Source Pyomo model name=MASTER *\

min 
x1:
+0.20000000000000001 x115
+0.20000000000000001 x116
+0.20000000000000001 x47
+0.20000000000000001 x48
+0.20000000000000001 x64
+0.20000000000000001 x65
+0.20000000000000001 x81
+0.20000000000000001 x82
+0.20000000000000001 x98
+0.20000000000000001 x99

s.t.

c_e_x2_:
+1 x27
-1 x96
= 0

c_e_x3_:
+1 x27
-1 x79
= 0

c_e_x4_:
+1 x27
-1 x62
= 0

c_e_x5_:
+1 x27
-1 x45
= 0

c_e_x6_:
-1 x113
+1 x27
= 0

c_e_x7_:
+1 x28
-1 x89
= 0

c_e_x8_:
+1 x28
-1 x72
= 0

c_e_x9_:
+1 x28
-1 x55
= 0

c_e_x10_:
+1 x28
-1 x38
= 0

c_e_x11_:
-1 x106
+1 x28
= 0

c_e_x12_:
+1 x29
-1 x90
= 0

c_e_x13_:
+1 x29
-1 x73
= 0

c_e_x14_:
+1 x29
-1 x56
= 0

c_e_x15_:
+1 x29
-1 x39
= 0

c_e_x16_:
-1 x107
+1 x29
= 0

c_e_x17_:
+1 x30
-1 x91
= 0

c_e_x18_:
+1 x30
-1 x74
= 0

c_e_x19_:
+1 x30
-1 x57
= 0

c_e_x20_:
+1 x30
-1 x40
= 0

c_e_x21_:
-1 x108
+1 x30
= 0

c_e_x22_:
+1 x31
-1 x92
= 0

c_e_x23_:
+1 x31
-1 x75
= 0

c_e_x24_:
+1 x31
-1 x58
= 0

c_e_x25_:
+1 x31
-1 x41
= 0

c_e_x26_:
-1 x109
+1 x31
= 0

c_e_x32_:
-1 x38
+1 x40
+1 x42
= 0

c_e_x33_:
-1 x39
+1 x41
+1 x43
= 0

c_e_x34_:
+1.0029999999999999 x38
+1.0029999999999999 x39
-0.99557499999999999 x40
-0.99557499999999999 x41
+1 x44
= 1000000

c_u_x35_:
+1.0381 x42
+1.0643 x43
-1 x45
-1 x46
<= 0

c_e_x36_:
+1 x47
= 0

c_e_x37_:
-1 x45
-19.999999999999982 x46
+1 x48
= 0

c_e_x49_:
-1 x55
+1 x57
+1 x59
= 0

c_e_x50_:
-1 x56
+1 x58
+1 x60
= 0

c_e_x51_:
+1.0029999999999999 x55
+1.0029999999999999 x56
-0.99557499999999999 x57
-0.99557499999999999 x58
+1 x61
= 1000000

c_u_x52_:
+1.01292 x59
+1.0347 x60
-1 x62
-1 x63
<= 0

c_e_x53_:
+1 x64
= 0

c_e_x54_:
-1 x62
-19.999999999999982 x63
+1 x65
= 0

c_e_x66_:
-1 x72
+1 x74
+1 x76
= 0

c_e_x67_:
-1 x73
+1 x75
+1 x77
= 0

c_e_x68_:
+1.0029999999999999 x72
+1.0029999999999999 x73
-0.99557499999999999 x74
-0.99557499999999999 x75
+1 x78
= 1000000

c_u_x69_:
+1.2582 x76
+1.0266 x77
-1 x79
-1 x80
<= 0

c_e_x70_:
+1 x81
= 0

c_e_x71_:
-1 x79
-19.999999999999982 x80
+1 x82
= 0

c_e_x83_:
-1 x89
+1 x91
+1 x93
= 0

c_e_x84_:
-1 x90
+1 x92
+1 x94
= 0

c_e_x85_:
+1.0029999999999999 x89
+1.0029999999999999 x90
-0.99557499999999999 x91
-0.99557499999999999 x92
+1 x95
= 1000000

c_u_x86_:
+1.1421999999999999 x93
+1.0388999999999999 x94
-1 x96
-1 x97
<= 0

c_e_x87_:
+1 x98
= 0

c_e_x88_:
-1 x96
-19.999999999999982 x97
+1 x99
= 0

c_e_x100_:
-1 x106
+1 x108
+1 x110
= 0

c_e_x101_:
-1 x107
+1 x109
+1 x111
= 0

c_e_x102_:
+1.0029999999999999 x106
+1.0029999999999999 x107
-0.99557499999999999 x108
-0.99557499999999999 x109
+1 x112
= 1000000

c_u_x103_:
+1.0472999999999999 x110
+1.1012999999999999 x111
-1 x113
-1 x114
<= 0

c_e_x104_:
+1 x115
= 0

c_e_x105_:
-1 x113
-19.999999999999982 x114
+1 x116
= 0

c_e_ONE_VAR_CONSTANT: 
ONE_VAR_CONSTANT = 1.0

bounds 
    -inf <= x27 <= +inf
    -inf <= x28 <= +inf
    -inf <= x29 <= +inf
    -inf <= x30 <= +inf
    -inf <= x31 <= +inf
   0 <= x38 <= +inf
   0 <= x39 <= +inf
   0 <= x40 <= +inf
   0 <= x41 <= +inf
   0 <= x42 <= +inf
   0 <= x43 <= +inf
   0 <= x44 <= +inf
    -inf <= x45 <= +inf
   0 <= x46 <= +inf
    -inf <= x47 <= +inf
    -inf <= x48 <= +inf
   0 <= x55 <= +inf
   0 <= x56 <= +inf
   0 <= x57 <= +inf
   0 <= x58 <= +inf
   0 <= x59 <= +inf
   0 <= x60 <= +inf
   0 <= x61 <= +inf
    -inf <= x62 <= +inf
   0 <= x63 <= +inf
    -inf <= x64 <= +inf
    -inf <= x65 <= +inf
   0 <= x72 <= +inf
   0 <= x73 <= +inf
   0 <= x74 <= +inf
   0 <= x75 <= +inf
   0 <= x76 <= +inf
   0 <= x77 <= +inf
   0 <= x78 <= +inf
    -inf <= x79 <= +inf
   0 <= x80 <= +inf
    -inf <= x81 <= +inf
    -inf <= x82 <= +inf
   0 <= x89 <= +inf
   0 <= x90 <= +inf
   0 <= x91 <= +inf
   0 <= x92 <= +inf
   0 <= x93 <= +inf
   0 <= x94 <= +inf
   0 <= x95 <= +inf
    -inf <= x96 <= +inf
   0 <= x97 <= +inf
    -inf <= x98 <= +inf
    -inf <= x99 <= +inf
   0 <= x106 <= +inf
   0 <= x107 <= +inf
   0 <= x108 <= +inf
   0 <= x109 <= +inf
   0 <= x110 <= +inf
   0 <= x111 <= +inf
   0 <= x112 <= +inf
    -inf <= x113 <= +inf
   0 <= x114 <= +inf
    -inf <= x115 <= +inf
    -inf <= x116 <= +inf
end 
